maximize

0.250000 v_3S8_1_4 + 0.333333 v_N5J_3_1 + 0.250000 v_3S8_2_2 + 0.250000 v_3S8_2_3 + 0.250000 v_3S8_2_1 + 0.333333 v_N5J_3_3 + 0.333333 v_N5J_1_1 + 0.250000 v_3S8_3_3 + 0.250000 v_3S8_3_2 + 0.250000 v_3S8_3_1 + 0.333333 v_N5J_2_3 + 0.333333 v_N5J_2_2

subject to

1t2+1t3+1t1<=2
v_3S8_2_1-t2<=0
v_3S8_3_1-t3<=0
v_3S8_2_1+v_3S8_3_1<=1
v_3S8_2_3-t2<=0
v_3S8_3_3-t3<=0
v_3S8_2_3+v_3S8_3_3<=1
v_3S8_2_2-t2<=0
v_3S8_3_2-t3<=0
v_3S8_2_2+v_3S8_3_2<=1
v_3S8_1_4-t1<=0
v_3S8_1_4<=1
v_N5J_1_1-t1<=0
v_N5J_3_1-t3<=0
v_N5J_1_1+v_N5J_3_1<=1
v_N5J_2_3-t2<=0
v_N5J_3_3-t3<=0
v_N5J_2_3+v_N5J_3_3<=1
v_N5J_2_2-t2<=0
v_N5J_2_2<=1

binary

t2 t3 t1 v_3S8_1_4 v_N5J_3_1 v_3S8_2_2 v_3S8_2_3 v_3S8_2_1 v_N5J_3_3 v_N5J_1_1 v_3S8_3_3 v_3S8_3_2 v_3S8_3_1 v_N5J_2_3 v_N5J_2_2

end